c Reduced graph for GEOM100a_1 generated by Cyril Grelier
p edge 97 957
e 1 3
e 1 8
e 1 13
e 1 14
e 1 16
e 1 22
e 1 23
e 1 25
e 1 26
e 1 28
e 1 29
e 1 32
e 1 33
e 1 34
e 1 35
e 1 36
e 1 40
e 1 44
e 1 46
e 1 48
e 1 49
e 1 52
e 1 53
e 1 54
e 1 60
e 1 74
e 1 80
e 1 88
e 2 4
e 2 5
e 2 6
e 2 7
e 2 9
e 2 10
e 2 11
e 2 12
e 2 15
e 2 17
e 2 19
e 2 20
e 2 23
e 2 24
e 2 27
e 2 31
e 2 32
e 2 38
e 2 40
e 2 41
e 2 43
e 2 44
e 2 47
e 2 48
e 2 50
e 2 52
e 2 61
e 2 65
e 3 8
e 3 13
e 3 14
e 3 16
e 3 22
e 3 23
e 3 25
e 3 26
e 3 28
e 3 29
e 3 32
e 3 33
e 3 34
e 3 35
e 3 40
e 3 44
e 3 46
e 3 48
e 3 49
e 3 52
e 3 53
e 3 54
e 3 60
e 3 71
e 3 74
e 3 80
e 3 88
e 4 5
e 4 6
e 4 7
e 4 9
e 4 10
e 4 11
e 4 12
e 4 15
e 4 17
e 4 18
e 4 19
e 4 20
e 4 23
e 4 24
e 4 27
e 4 31
e 4 32
e 4 38
e 4 40
e 4 41
e 4 44
e 4 47
e 4 48
e 4 50
e 4 52
e 4 56
e 4 65
e 5 6
e 5 7
e 5 9
e 5 10
e 5 11
e 5 12
e 5 15
e 5 17
e 5 19
e 5 20
e 5 23
e 5 24
e 5 27
e 5 31
e 5 32
e 5 38
e 5 40
e 5 41
e 5 43
e 5 44
e 5 47
e 5 50
e 5 55
e 5 56
e 5 61
e 5 65
e 6 8
e 6 9
e 6 12
e 6 15
e 6 17
e 6 23
e 6 32
e 6 36
e 6 40
e 6 41
e 6 43
e 6 44
e 6 48
e 6 50
e 6 52
e 6 61
e 6 72
e 6 74
e 6 78
e 6 79
e 6 85
e 6 90
e 6 93
e 6 94
e 7 9
e 7 10
e 7 11
e 7 15
e 7 17
e 7 18
e 7 19
e 7 20
e 7 24
e 7 27
e 7 31
e 7 38
e 7 45
e 7 47
e 7 51
e 7 55
e 7 56
e 7 57
e 7 58
e 7 65
e 7 67
e 7 69
e 7 76
e 7 77
e 8 12
e 8 13
e 8 14
e 8 16
e 8 22
e 8 23
e 8 25
e 8 26
e 8 28
e 8 29
e 8 32
e 8 33
e 8 34
e 8 35
e 8 36
e 8 40
e 8 44
e 8 46
e 8 48
e 8 49
e 8 52
e 8 74
e 8 80
e 8 88
e 9 10
e 9 11
e 9 12
e 9 15
e 9 17
e 9 18
e 9 19
e 9 20
e 9 23
e 9 24
e 9 27
e 9 31
e 9 32
e 9 38
e 9 40
e 9 41
e 9 44
e 9 47
e 9 50
e 9 55
e 9 56
e 9 65
e 10 11
e 10 18
e 10 19
e 10 20
e 10 24
e 10 27
e 10 31
e 10 32
e 10 38
e 10 45
e 10 51
e 10 55
e 10 56
e 10 57
e 10 58
e 10 66
e 10 67
e 10 68
e 10 69
e 10 76
e 10 77
e 10 96
e 11 18
e 11 19
e 11 20
e 11 24
e 11 27
e 11 31
e 11 38
e 11 45
e 11 51
e 11 55
e 11 56
e 11 57
e 11 58
e 11 65
e 11 67
e 11 68
e 11 69
e 11 76
e 11 77
e 11 96
e 12 15
e 12 17
e 12 23
e 12 32
e 12 36
e 12 40
e 12 41
e 12 43
e 12 44
e 12 48
e 12 50
e 12 52
e 12 61
e 12 72
e 12 78
e 12 79
e 12 85
e 12 90
e 12 93
e 12 94
e 13 14
e 13 16
e 13 22
e 13 25
e 13 26
e 13 28
e 13 29
e 13 33
e 13 34
e 13 35
e 13 46
e 13 49
e 13 52
e 13 53
e 13 54
e 13 60
e 13 71
e 13 74
e 13 80
e 13 88
e 13 89
e 13 92
e 14 16
e 14 22
e 14 25
e 14 26
e 14 28
e 14 29
e 14 33
e 14 34
e 14 35
e 14 46
e 14 48
e 14 49
e 14 52
e 14 53
e 14 54
e 14 59
e 14 60
e 14 71
e 14 87
e 14 89
e 14 92
e 15 17
e 15 19
e 15 23
e 15 24
e 15 27
e 15 36
e 15 40
e 15 41
e 15 43
e 15 44
e 15 47
e 15 50
e 15 61
e 15 65
e 15 72
e 15 78
e 15 79
e 15 85
e 16 22
e 16 23
e 16 26
e 16 28
e 16 29
e 16 33
e 16 34
e 16 35
e 16 36
e 16 46
e 16 48
e 16 49
e 16 52
e 16 53
e 16 54
e 16 60
e 16 71
e 16 74
e 16 80
e 16 88
e 17 19
e 17 23
e 17 24
e 17 27
e 17 31
e 17 32
e 17 40
e 17 41
e 17 43
e 17 44
e 17 47
e 17 50
e 17 61
e 17 65
e 17 72
e 17 78
e 17 79
e 18 19
e 18 20
e 18 24
e 18 27
e 18 31
e 18 38
e 18 45
e 18 51
e 18 55
e 18 56
e 18 57
e 18 58
e 18 62
e 18 66
e 18 67
e 18 68
e 18 69
e 18 76
e 18 77
e 18 96
e 19 24
e 19 27
e 19 31
e 19 38
e 19 41
e 19 45
e 19 47
e 19 51
e 19 55
e 19 56
e 19 65
e 19 67
e 19 76
e 19 77
e 20 21
e 20 22
e 20 23
e 20 25
e 20 29
e 20 32
e 20 40
e 20 44
e 20 48
e 20 52
e 20 57
e 20 58
e 20 59
e 20 62
e 20 66
e 20 69
e 21 22
e 21 25
e 21 30
e 21 37
e 21 39
e 21 42
e 21 57
e 21 58
e 21 59
e 21 62
e 21 63
e 21 64
e 21 66
e 21 70
e 21 73
e 21 75
e 21 81
e 21 82
e 21 83
e 21 84
e 21 86
e 21 91
e 21 95
e 22 23
e 22 25
e 22 26
e 22 28
e 22 29
e 22 32
e 22 33
e 22 37
e 22 40
e 22 44
e 22 48
e 22 52
e 22 59
e 22 70
e 22 86
e 22 87
e 23 29
e 23 32
e 23 36
e 23 40
e 23 43
e 23 44
e 23 48
e 23 52
e 23 74
e 24 27
e 24 31
e 24 38
e 24 41
e 24 47
e 24 50
e 24 51
e 24 55
e 24 56
e 24 65
e 24 67
e 24 77
e 25 26
e 25 28
e 25 29
e 25 32
e 25 33
e 25 35
e 25 37
e 25 48
e 25 52
e 25 59
e 25 64
e 25 70
e 25 84
e 25 86
e 25 87
e 26 28
e 26 29
e 26 33
e 26 34
e 26 35
e 26 46
e 26 49
e 26 53
e 26 54
e 26 60
e 26 71
e 26 87
e 26 89
e 26 92
e 27 31
e 27 38
e 27 41
e 27 47
e 27 50
e 27 55
e 27 56
e 27 65
e 27 67
e 27 77
e 28 29
e 28 32
e 28 33
e 28 34
e 28 35
e 28 46
e 28 48
e 28 52
e 28 53
e 28 59
e 28 70
e 28 86
e 28 87
e 29 32
e 29 33
e 29 35
e 29 40
e 29 44
e 29 46
e 29 48
e 29 52
e 29 59
e 29 70
e 30 37
e 30 39
e 30 42
e 30 57
e 30 58
e 30 59
e 30 62
e 30 63
e 30 64
e 30 66
e 30 68
e 30 70
e 30 73
e 30 75
e 30 81
e 30 82
e 30 83
e 30 84
e 30 86
e 30 91
e 30 95
e 31 38
e 31 45
e 31 47
e 31 51
e 31 55
e 31 56
e 31 65
e 31 67
e 31 76
e 31 77
e 32 40
e 32 44
e 32 48
e 32 52
e 32 57
e 33 34
e 33 35
e 33 49
e 33 53
e 33 54
e 33 60
e 33 71
e 33 87
e 33 89
e 33 92
e 34 35
e 34 46
e 34 49
e 34 53
e 34 54
e 34 60
e 34 71
e 34 74
e 34 80
e 34 88
e 34 89
e 34 92
e 35 46
e 35 49
e 35 53
e 35 54
e 35 60
e 35 71
e 35 87
e 35 89
e 35 92
e 36 40
e 36 43
e 36 44
e 36 46
e 36 61
e 36 72
e 36 74
e 36 78
e 36 79
e 36 85
e 36 88
e 36 90
e 36 93
e 36 94
e 37 39
e 37 42
e 37 59
e 37 62
e 37 63
e 37 64
e 37 70
e 37 73
e 37 75
e 37 82
e 37 83
e 37 84
e 37 86
e 37 87
e 37 91
e 37 95
e 37 97
e 38 45
e 38 47
e 38 51
e 38 55
e 38 56
e 38 65
e 38 67
e 38 76
e 38 77
e 39 42
e 39 57
e 39 58
e 39 59
e 39 62
e 39 63
e 39 64
e 39 66
e 39 68
e 39 70
e 39 73
e 39 75
e 39 81
e 39 82
e 39 83
e 39 84
e 39 91
e 39 95
e 40 43
e 40 44
e 40 48
e 40 52
e 41 43
e 41 47
e 41 50
e 41 61
e 41 65
e 41 72
e 41 78
e 41 79
e 41 85
e 41 90
e 42 57
e 42 58
e 42 59
e 42 62
e 42 63
e 42 64
e 42 66
e 42 68
e 42 70
e 42 73
e 42 75
e 42 81
e 42 82
e 42 83
e 42 84
e 42 91
e 42 95
e 43 47
e 43 50
e 43 61
e 43 72
e 43 78
e 43 79
e 43 85
e 43 90
e 43 93
e 43 94
e 44 48
e 44 52
e 45 51
e 45 55
e 45 57
e 45 58
e 45 62
e 45 66
e 45 67
e 45 68
e 45 69
e 45 76
e 45 77
e 45 81
e 45 96
e 46 49
e 46 53
e 46 54
e 46 60
e 46 71
e 46 74
e 46 80
e 46 88
e 47 50
e 47 55
e 47 56
e 47 61
e 47 65
e 47 72
e 48 52
e 48 59
e 49 53
e 49 54
e 49 60
e 49 71
e 49 74
e 49 80
e 49 88
e 49 89
e 49 92
e 50 61
e 50 65
e 50 72
e 50 78
e 50 79
e 50 85
e 50 90
e 51 55
e 51 56
e 51 57
e 51 58
e 51 66
e 51 67
e 51 68
e 51 69
e 51 76
e 51 77
e 51 96
e 53 54
e 53 60
e 53 71
e 53 80
e 53 88
e 53 89
e 53 92
e 54 60
e 54 71
e 54 74
e 54 80
e 54 88
e 54 89
e 54 92
e 55 56
e 55 65
e 55 67
e 55 76
e 55 77
e 56 65
e 56 67
e 56 76
e 56 77
e 57 58
e 57 62
e 57 63
e 57 66
e 57 68
e 57 69
e 57 81
e 58 62
e 58 63
e 58 66
e 58 68
e 58 69
e 58 81
e 58 96
e 59 62
e 59 64
e 59 70
e 59 84
e 59 86
e 59 87
e 59 97
e 60 71
e 60 80
e 60 88
e 60 89
e 60 92
e 61 72
e 61 78
e 61 79
e 61 85
e 61 90
e 61 93
e 61 94
e 62 63
e 62 66
e 62 68
e 62 69
e 62 81
e 62 82
e 62 83
e 63 66
e 63 68
e 63 69
e 63 73
e 63 75
e 63 81
e 63 82
e 63 83
e 63 91
e 63 95
e 64 70
e 64 73
e 64 75
e 64 82
e 64 83
e 64 84
e 64 86
e 64 87
e 64 91
e 64 95
e 64 97
e 66 68
e 66 69
e 66 81
e 66 82
e 66 83
e 67 69
e 67 76
e 67 77
e 67 96
e 68 69
e 68 76
e 68 81
e 68 96
e 69 76
e 69 81
e 69 96
e 70 73
e 70 75
e 70 84
e 70 86
e 70 87
e 70 97
e 71 80
e 71 89
e 71 92
e 72 78
e 72 79
e 72 85
e 72 90
e 72 93
e 72 94
e 73 75
e 73 82
e 73 83
e 73 84
e 73 86
e 73 91
e 73 95
e 73 97
e 74 80
e 74 88
e 74 93
e 74 94
e 75 82
e 75 83
e 75 84
e 75 86
e 75 91
e 75 95
e 75 97
e 76 77
e 76 96
e 77 96
e 78 79
e 78 85
e 78 90
e 78 93
e 78 94
e 79 85
e 79 90
e 79 93
e 79 94
e 80 88
e 80 89
e 81 82
e 81 83
e 81 96
e 82 83
e 82 91
e 82 95
e 83 91
e 83 95
e 84 86
e 84 87
e 84 91
e 84 97
e 85 90
e 85 93
e 85 94
e 86 87
e 86 97
e 87 97
e 89 92
e 90 93
e 90 94
e 91 95
e 93 94
